%% Data: VRP Workshop — 8 ลูกค้า, 3 รถ, capacity 100 กก.
n_customers = 8;
n_vehicles  = 3;
capacity    = 100;

demand = [25, 30, 15, 40, 20, 35, 10, 45];

%% n_nodes = 8+3 = 11 (1-8: customers, 9-11: depot copies)
dist = array2d(1..11, 1..11, [
%%    1   2   3   4   5   6   7   8   D1  D2  D3
      0, 12,  8, 15, 10, 14,  6, 20,  5,  5,  5,  %C1
     12,  0,  9, 11, 16,  7, 13, 18,  8,  8,  8,  %C2
      8,  9,  0, 13,  6, 18, 10, 15,  6,  6,  6,  %C3
     15, 11, 13,  0,  9, 10, 17, 12,  9,  9,  9,  %C4
     10, 16,  6,  9,  0, 12,  8, 22,  7,  7,  7,  %C5
     14,  7, 18, 10, 12,  0, 16,  9, 11, 11, 11,  %C6
      6, 13, 10, 17,  8, 16,  0, 14,  7,  7,  7,  %C7
     20, 18, 15, 12, 22,  9, 14,  0, 12, 12, 12,  %C8
      5,  8,  6,  9,  7, 11,  7, 12,  0,  0,  0,  %D1
      5,  8,  6,  9,  7, 11,  7, 12,  0,  0,  0,  %D2
      5,  8,  6,  9,  7, 11,  7, 12,  0,  0,  0   %D3
]);
